\ Model opt_adjust
\ LP format - for model browsing. Use MPS format to capture full model detail.
Minimize
  e[0,0] + e[0,1] + e[1,0] + e[1,1] + e[2,0] + e[2,1] + e[3,0] + e[3,1]
   + f[0,0] + f[0,1] + f[1,0] + f[1,1] + f[2,0] + f[2,1] + f[3,0] + f[3,1]
Subject To
 qc0: - 7 y[0] + 7 y[1] - 16 y[2] + 17 y[3] + [ e[0,0] * y[0]
   + e[1,0] * y[1] + e[2,0] * y[2] + e[3,0] * y[3] - f[0,0] * y[0]
   - f[1,0] * y[1] - f[2,0] * y[2] - f[3,0] * y[3] ] = 7
 qc1: 19 y[0] - 3 y[1] - 20 y[2] + 5 y[3] + [ e[0,1] * y[0] + e[1,1] * y[1]
   + e[2,1] * y[2] + e[3,1] * y[3] - f[0,1] * y[0] - f[1,1] * y[1]
   - f[2,1] * y[2] - f[3,1] * y[3] ] = 2
 qc2: - 34.1406976744186 y[0] + [ 1.31453488372093 e[0,0] * y[0]
   - 1.049418604651163 e[0,1] * y[0] - 1.31453488372093 f[0,0] * y[0]
   + 1.049418604651163 f[0,1] * y[0] ] = 0
 qc3: - 0.65 y[1] + [ 1.31453488372093 e[1,0] * y[1]
   - 1.049418604651163 e[1,1] * y[1] - 1.31453488372093 f[1,0] * y[1]
   + 1.049418604651163 f[1,1] * y[1] ] = 0
 qc4: - 22.04418604651163 y[2] + [ 1.31453488372093 e[2,0] * y[2]
   - 1.049418604651163 e[2,1] * y[2] - 1.31453488372093 f[2,0] * y[2]
   + 1.049418604651163 f[2,1] * y[2] ] = 0
 qc5: - 0.9 y[3] + [ 1.31453488372093 e[3,0] * y[3]
   - 1.049418604651163 e[3,1] * y[3] - 1.31453488372093 f[3,0] * y[3]
   + 1.049418604651163 f[3,1] * y[3] ] = 0
Bounds
End
